n=15;
t=15;
profit=[8  1  2  10  2  9  2  10  5  9  3  8  8  8  1];
length=[1  4  7  6  11  13  2  14  11  11  3  7  1  13  1];
min_deliver=[2  1  1  2  11  9  11  13  14  5  8  10  5  11  1];
max_deliver=[2  8  11  8  11  13  15  15  15  11  8  15  10  15  1];
surface=[15  1  9  10  9  9  6  10  3  15  11  9  15  7  6];
surface_capacity=15;
